
--- Job 6_node_4_only_SUB.gms Start 01/11/22 10:46:26 35.1.0 r82a9585 WEX-WEI x86 64bit/MS Windows
--- Applying:
    C:\GAMS\35\gmsprmNT.txt
--- GAMS Parameters defined
    Input "Z:\MitarbeiterOrdner\Bernecker\GitHub Desktop Project Foulder\SARO-Dunkelflaute\ARO_6nodeTest\6_node_4_only_SUB.gms"
    PageSize 0
    ScrDir "Z:\MitarbeiterOrdner\Bernecker\GitHub Desktop Project Foulder\SARO-Dunkelflaute\ARO_6nodeTest\225a\"
    SysDir C:\GAMS\35\
    LogOption 3
    ErrMsg 1
    ErrorLog 99
    IDE 1
    LstTitleLeftAligned 1
Licensee: Small MUD - 5 User License                     S201118/0001AN-WIN
          BTU Cottbus-Senftenberg, FG Energiewirtschaft              DC5591
          C:\Users\Max Bernecker\Documents\GAMS\gamslice.txt
GAMS 35.1.0   Copyright (C) 1987-2021 GAMS Development. All rights reserved
--- Starting compilation
--- 6_node_4_only_SUB.gms(300) 3 Mb
--- Starting execution: elapsed 0:00:00.031
--- Generating MIP model Subproblem
--- 6_node_4_only_SUB.gms(298) 5 Mb
---   1,851 rows  2,425 columns  6,217 non-zeroes
---   264 discrete-columns
--- Executing CPLEX (Solvelink=2): elapsed 0:00:00.089

IBM ILOG CPLEX   35.1.0 r82a9585 Released Apr 29, 2021 WEI x86 64bit/MS Window

--- GAMS/Cplex Link licensed for continuous and discrete problems.
--- Space for names approximately 0.10 Mb
--- Use option 'names no' to turn use of names off
--- GMO memory 0.99 Mb (peak 1.01 Mb)
--- Dictionary memory 0.00 Mb
--- Cplex 20.1.0.1 link memory 0.07 Mb (peak 0.28 Mb)
--- Starting Cplex

Version identifier: 20.1.0.1 | 2021-04-07 | 3a818710c
CPXPARAM_Advance                                 0
CPXPARAM_Threads                                 1
CPXPARAM_MIP_Display                             4
CPXPARAM_MIP_Tolerances_AbsMIPGap                0
Generic callback                                 0x50
Found incumbent of value 0.000000 after 0.00 sec. (0.12 ticks)
Tried aggregator 2 times.
MIP Presolve eliminated 1178 rows and 1441 columns.
MIP Presolve modified 96 coefficients.
Aggregator did 408 substitutions.
Reduced MIP has 264 rows, 576 columns, and 1008 nonzeros.
Reduced MIP has 0 binaries, 0 generals, 0 SOSs, and 0 indicators.
Presolve time = 0.00 sec. (3.54 ticks)
Tried aggregator 2 times.
MIP Presolve eliminated 253 rows and 552 columns.
Aggregator did 3 substitutions.
Reduced MIP has 8 rows, 21 columns, and 41 nonzeros.
Reduced MIP has 0 binaries, 0 generals, 0 SOSs, and 0 indicators.
Presolve time = 0.00 sec. (0.30 ticks)
Tried aggregator 1 time.
Detecting symmetries...
Reduced MIP has 8 rows, 21 columns, and 41 nonzeros.
Reduced MIP has 0 binaries, 0 generals, 0 SOSs, and 0 indicators.
Presolve time = 0.02 sec. (0.02 ticks)
MIP emphasis: balance optimality and feasibility.
MIP search method: dynamic search.
Parallel mode: none, using 1 thread.

Iteration log . . .
Iteration:     1   Scaled dual infeas =             0.000000
Iteration:     2   Dual objective     =    4339093172.500000
Root relaxation solution time = 0.00 sec. (0.01 ticks)

        Nodes                                         Cuts/
   Node  Left     Objective  IInf  Best Integer    Best Bound    ItCnt     Gap

*     0+    0                       4.33407e+09   2.59402e+10           498.52%
Found incumbent of value 4.3340724e+09 after 0.03 sec. (27.13 ticks)
*     0     0      integral     0   4.33842e+09   4.33842e+09        5    0.00%
Elapsed time = 0.03 sec. (27.17 ticks, tree = 0.00 MB, solutions = 3)
Found incumbent of value 4.3384234e+09 after 0.03 sec. (27.17 ticks)

Root node processing (before b&c):
  Real time             =    0.03 sec. (27.28 ticks)
Sequential b&c:
  Real time             =    0.00 sec. (0.00 ticks)
                          ------------
Total (root+branch&cut) =    0.03 sec. (27.28 ticks)

--- MIP status (101): integer optimal solution.
--- Cplex Time: 0.03sec (det. 27.29 ticks)

--- Fixing integer variables and solving final LP...

Version identifier: 20.1.0.1 | 2021-04-07 | 3a818710c
CPXPARAM_Advance                                 2
CPXPARAM_Threads                                 1
CPXPARAM_MIP_Display                             4
CPXPARAM_MIP_Tolerances_AbsMIPGap                0
Tried aggregator 1 time.
LP Presolve eliminated 1466 rows and 1729 columns.
Aggregator did 120 substitutions.
Reduced LP has 264 rows, 576 columns, and 1008 nonzeros.
Presolve time = 0.00 sec. (1.73 ticks)
Symmetry aggregator did 805 additional substitutions.
Initializing dual steep norms . . .

Iteration log . . .
Iteration:     1   Dual objective     =   19391252800.000000

Dual crossover.
  Dual:  Fixing 24 variables.
       23 DMoves:  Infeasibility  1.17142918e-09  Objective  4.33842336e+09
        0 DMoves:  Infeasibility  0.00000000e+00  Objective  4.33842336e+09
  Dual:  Pushed 0, exchanged 24.
  Primal:  Fixed no variables.

--- Fixed MIP status (1): optimal.
--- Cplex Time: 0.00sec (det. 2.91 ticks)


Proven optimal solution
MIP Solution:   4338423361.000000    (5 iterations, 0 nodes)
Final Solve:    4338423361.000000    (5 iterations)

Best possible:  4338423361.000000
Absolute gap:            0.000000
Relative gap:            0.000000

--- Reading solution for model Subproblem
--- Executing after solve: elapsed 0:00:00.242
--- 6_node_4_only_SUB.gms(299) 5 Mb
--- GDX File (execute_unload) Z:\MitarbeiterOrdner\Bernecker\GitHub Desktop Project Foulder\SARO-Dunkelflaute\ARO_6nodeTest\check_only_SUB.gdx
*** Status: Normal completion
--- Job 6_node_4_only_SUB.gms Stop 01/11/22 10:46:26 elapsed 0:00:00.287
